MSW08
Position Depot: Center
Horizon for Depot: Small
Position of customers: Mixt
Distribution of the demand: Small
Width of time windows: Wide
Distribution of the service: Large

VEHICLE 
NUMBER 	 CAPACITY 
 7 	 	 50 
 
CUSTOMER
CUST NO. 	 XCOORD.  	 YCOORD. 	 DEMAND 	 READY TIME 	 DUE DATE 	 SERVICE TIME 
 0 	 	 500 	 	 500 	 	 0 	 	 0 	 	 1986 	 	 0 
  1 	 	 806 	 	 299 	 	 5 	 	 358 	 	 630 	 	 194 
  2 	 	 684 	 	 210 	 	 9 	 	 1671 	 	 1986 	 	 135 
  3 	 	 733 	 	 59 	 	 7 	 	 930 	 	 1131 	 	 140 
  4 	 	 386 	 	 500 	 	 8 	 	 1289 	 	 1777 	 	 112 
  5 	 	 616 	 	 221 	 	 10 	 	 912 	 	 1212 	 	 198 
  6 	 	 503 	 	 466 	 	 8 	 	 1127 	 	 1580 	 	 102 
  7 	 	 529 	 	 745 	 	 5 	 	 508 	 	 841 	 	 114 
  8 	 	 269 	 	 442 	 	 6 	 	 522 	 	 769 	 	 152 
  9 	 	 807 	 	 102 	 	 8 	 	 1708 	 	 1986 	 	 175 
  10 	 	 898 	 	 23 	 	 5 	 	 1679 	 	 1889 	 	 166 
  11 	 	 497 	 	 474 	 	 6 	 	 540 	 	 921 	 	 184 
  12 	 	 563 	 	 726 	 	 7 	 	 703 	 	 1111 	 	 132 
  13 	 	 649 	 	 139 	 	 9 	 	 423 	 	 664 	 	 111 
  14 	 	 715 	 	 345 	 	 6 	 	 551 	 	 1012 	 	 138 
  15 	 	 298 	 	 352 	 	 9 	 	 189 	 	 662 	 	 125 
  16 	 	 690 	 	 280 	 	 8 	 	 270 	 	 510 	 	 187 
  17 	 	 689 	 	 269 	 	 5 	 	 1537 	 	 1959 	 	 145 
  18 	 	 742 	 	 343 	 	 8 	 	 435 	 	 674 	 	 199 
  19 	 	 704 	 	 192 	 	 6 	 	 295 	 	 619 	 	 136 
  20 	 	 494 	 	 767 	 	 6 	 	 374 	 	 765 	 	 131 
  21 	 	 910 	 	 18 	 	 9 	 	 468 	 	 696 	 	 195 
  22 	 	 643 	 	 777 	 	 7 	 	 6 	 	 433 	 	 189 
  23 	 	 615 	 	 686 	 	 9 	 	 907 	 	 1220 	 	 156 
  24 	 	 851 	 	 268 	 	 6 	 	 1620 	 	 1986 	 	 102 
  25 	 	 280 	 	 492 	 	 6 	 	 1593 	 	 1986 	 	 192 
  26 	 	 241 	 	 49 	 	 6 	 	 1549 	 	 1986 	 	 187 
  27 	 	 17 	 	 613 	 	 7 	 	 498 	 	 893 	 	 156 
  28 	 	 718 	 	 912 	 	 9 	 	 744 	 	 1196 	 	 189 
  29 	 	 683 	 	 426 	 	 8 	 	 1253 	 	 1598 	 	 132 
  30 	 	 57 	 	 783 	 	 5 	 	 640 	 	 917 	 	 134 
  31 	 	 480 	 	 514 	 	 6 	 	 267 	 	 760 	 	 161 
  32 	 	 156 	 	 627 	 	 7 	 	 1535 	 	 1983 	 	 169 
  33 	 	 294 	 	 722 	 	 6 	 	 1618 	 	 1952 	 	 183 
  34 	 	 405 	 	 248 	 	 7 	 	 1346 	 	 1840 	 	 142 
  35 	 	 373 	 	 957 	 	 5 	 	 1344 	 	 1640 	 	 192 
  36 	 	 260 	 	 375 	 	 6 	 	 1296 	 	 1749 	 	 127 
  37 	 	 739 	 	 738 	 	 9 	 	 1285 	 	 1684 	 	 176 
  38 	 	 911 	 	 262 	 	 8 	 	 1144 	 	 1404 	 	 123 
  39 	 	 648 	 	 372 	 	 10 	 	 737 	 	 998 	 	 122 
  40 	 	 631 	 	 298 	 	 9 	 	 283 	 	 573 	 	 162 
  41 	 	 524 	 	 710 	 	 7 	 	 961 	 	 1272 	 	 116 
  42 	 	 746 	 	 514 	 	 5 	 	 466 	 	 917 	 	 168 
  43 	 	 430 	 	 911 	 	 5 	 	 1683 	 	 1986 	 	 189 
  44 	 	 946 	 	 736 	 	 7 	 	 1339 	 	 1770 	 	 173 
  45 	 	 635 	 	 779 	 	 6 	 	 1626 	 	 1897 	 	 168 
  46 	 	 384 	 	 906 	 	 10 	 	 901 	 	 1385 	 	 131 
  47 	 	 285 	 	 715 	 	 6 	 	 362 	 	 841 	 	 148 
  48 	 	 419 	 	 110 	 	 10 	 	 1035 	 	 1518 	 	 114 
  49 	 	 216 	 	 982 	 	 5 	 	 402 	 	 615 	 	 110 
  50 	 	 380 	 	 446 	 	 5 	 	 425 	 	 782 	 	 144 
 